
Welcome to IBM(R) ILOG(R) CPLEX(R) Interactive Optimizer 12.7.1.0
  with Simplex, Mixed Integer & Barrier Optimizers
5725-A06 5725-A29 5724-Y48 5724-Y49 5724-Y54 5724-Y55 5655-Y21
Copyright IBM Corp. 1988, 2017.  All Rights Reserved.

Type 'help' for a list of available commands.
Type 'help' followed by a command name for more
information on commands.

CPLEX> New value for default parallel thread count: 1
CPLEX> New value for time limit in seconds: 3600
CPLEX> Problem 'bier127_m18.lp' read.
Read time = 0.45 sec. (32.27 ticks)
CPLEX> CPXPARAM_TimeLimit                               3600
CPXPARAM_Threads                                 1
CPXPARAM_Read_APIEncoding                        "UTF-8"
Tried aggregator 1 time.
Reduced MIP has 18324 rows, 288163 columns, and 1750662 nonzeros.
Reduced MIP has 288036 binaries, 126 generals, 0 SOSs, and 0 indicators.
Presolve time = 0.67 sec. (665.28 ticks)
Tried aggregator 1 time.
Reduced MIP has 18324 rows, 288163 columns, and 1750662 nonzeros.
Reduced MIP has 288036 binaries, 126 generals, 0 SOSs, and 0 indicators.
Presolve time = 1.19 sec. (962.97 ticks)
Probing time = 0.31 sec. (115.38 ticks)
Cover probing fixed 0 vars, tightened 1 bounds.
Clique table members: 462839.
MIP emphasis: balance optimality and feasibility.
MIP search method: dynamic search.
Parallel mode: none, using 1 thread.
Root relaxation solution time = 83.32 sec. (104130.79 ticks)

        Nodes                                         Cuts/
   Node  Left     Objective  IInf  Best Integer    Best Bound    ItCnt     Gap

      0     0     6714.3068   361                   6714.3068    44146         
      0     0     7553.5849   371                   Cuts: 178    44935         
      0     0     7566.9806   393                   Cuts: 210    45880         
      0     0     7571.8889   370                   Cuts: 103    46385         
      0     0     7571.8889   378                    Cuts: 66    46687         
      0     0     7571.8889   338                 ZeroHalf: 9    46838         
      0     0     7571.8889   356                   Cuts: 126    47178         
Heuristic still looking.
Heuristic still looking.
Heuristic still looking.
      0     2     7571.8889   335                   7571.8889    47178         
Elapsed time = 427.28 sec. (724079.86 ticks, tree = 0.01 MB, solutions = 0)
      1     3    19488.6422   869                   7571.8889    93272         
      2     4     7576.4614   819                   7576.4614    94319         
      3     5     7617.3912   394                   7576.4614    95055         
      4     6    21702.0000   722                   7617.3912   166669         
      5     7     7617.3912   933                   7617.3912   168171         
      6     8    10158.7248   717                   7617.3912   185539         
      7     9     7617.9340   978                   7617.3912   185734         
      8    10    15768.9908  1186                   7617.9340   282297         
      9    11     7676.0013   879                   7617.9340   282482         
     10    12    15494.6606   925                   7676.0013   386815         
Elapsed time = 1534.98 sec. (2099071.38 ticks, tree = 3.20 MB, solutions = 0)
     11    13     7706.3433   830                   7676.0013   388891         
     12    13    17070.0550  1261                   7706.3433   466250         
     13    14     7709.2429   809                   7706.3433   466807         
     14    15     7721.2755   865                   7706.3433   468204         
     15    16    19309.2661   666                   7706.3433   525585         
     16    17     7740.1111  1514                   7706.3433   527415         
     17    18    17514.8807  1085                   7706.3433   612594         
     18    19     7740.1111  1502                   7706.3433   612705         
     20    21     7745.9444  1383                   7706.3433   613163         
     21    22     7762.4444  1489                   7706.3433   614966         
Elapsed time = 2989.59 sec. (4030246.50 ticks, tree = 5.94 MB, solutions = 0)
     22    23    17381.3394  1107                   7706.3433   743640         
     23    24     7778.9444  1419                   7706.3433   743935         
     24    25     7762.4444  1405                   7706.3433   744186         
     25    26     7779.0000  1406                   7706.3433   744575         
     26    27     7762.6670  1558                   7706.3433   744985         
     28    29     7779.1200  1511                   7706.3433   745385         
     29    30     7790.1667  1406                   7706.3433   747164         

Clique cuts applied:  42
Mixed integer rounding cuts applied:  111
Zero-half cuts applied:  178
Gomory fractional cuts applied:  8

Root node processing (before b&c):
  Real time             =  418.18 sec. (718186.30 ticks)
Sequential b&c:
  Real time             = 3181.84 sec. (4071579.39 ticks)
                          ------------
Total (root+branch&cut) = 3600.03 sec. (4789765.69 ticks)


MIP - Time limit exceeded, no integer solution.
Current MIP best bound =  7.7063432722e+03 (gap is infinite)
Solution time = 3600.03 sec.  Iterations = 817959  Nodes = 30 (30)
Deterministic time = 4789766.52 ticks  (1330.48 ticks/sec)

CPLEX> No integer feasible solution exists.
CPLEX> 